data;
param n:=100;
param w:=1 207 2 87 3 -125 4 -105 5 381 6 61 7 -168 8 123 9 -360 10 -12 11 -333 12 -355 13 -418 14 341 15 -228 16 -121 17 -270 18 -213 19 197 20 182 21 -370 22 -228 23 143 24 -144 25 -225 26 4 27 381 28 404 29 -288 30 -295 31 151 32 -88 33 -172 34 -306 35 34 36 273 37 -484 38 478 39 297 40 42 41 169 42 179 43 -435 44 50 45 -364 46 340 47 -209 48 -83 49 341 50 -492 51 -197 52 -128 53 -67 54 83 55 -146 56 6 57 431 58 -49 59 298 60 300 61 20 62 -195 63 374 64 -210 65 75 66 102 67 242 68 -491 69 -397 70 -502 71 234 72 -69 73 369 74 -62 75 -213 76 417 77 324 78 -113 79 274 80 492 81 -504 82 -381 83 -194 84 118 85 413 86 444 87 -16 88 26 89 183 90 428 91 35 92 -109 93 -13 94 -327 95 -453 96 38 97 442 98 125 99 405 100 164;
